120
150
48
58
59
51
40
43
59
58
51
54
40
48
51
57
46
49
41
55
47
45
54
46
46
50
45
51
54
48
57
45
57
53
58
52
51
54
45
49
60
57
53
54
56
58
41
51
56
53
55
45
52
55
40
40
53
50
53
44
49
60
55
54
47
40
43
54
49
45
48
60
57
49
47
50
53
52
40
52
41
52
46
53
45
54
51
41
55
51
51
45
41
51
48
45
60
52
57
41
41
55
44
47
49
58
60
48
45
43
49
47
41
60
52
51
50
41
50
55
50
47
